unknown
(model
; cardinality of BoundSet is 3
(declare-sort BoundSet 0)
; rep: @uc_BoundSet_0
; rep: @uc_BoundSet_1
; rep: @uc_BoundSet_2
(declare-sort UnboundSet 0)
(define-fun IsYoung ((BOUND_VARIABLE_437 BoundSet)) Bool true)
(define-fun IsOnBusyStreet ((BOUND_VARIABLE_437 BoundSet)) Bool true)
(define-fun IsAtNight ((BOUND_VARIABLE_437 BoundSet)) Bool true)
(define-fun IsOutside ((BOUND_VARIABLE_437 BoundSet)) Bool false)
)
